n=214;
k_min=7;
k_max=7;
M=[| 143, 142, 159, 121, 143, 129, 160
 | 150, 138, 152, 121, 146, 123, 166
 | 151, 140, 151, 122, 146, 125, 163
 | 147, 141, 153, 121, 144, 126, 164
 | 150, 141, 152, 121, 143, 126, 164
 | 148, 142, 150, 122, 143, 127, 163
 | 149, 141, 152, 120, 143, 126, 165
 | 149, 142, 152, 120, 142, 126, 166
 | 146, 139, 156, 121, 145, 124, 166
 | 148, 143, 152, 120, 142, 128, 164
 | 149, 143, 150, 122, 142, 127, 163
 | 147, 144, 152, 120, 141, 128, 165
 | 150, 142, 150, 122, 143, 127, 163
 | 149, 144, 151, 120, 141, 128, 164
 | 148, 145, 151, 120, 140, 129, 164
 | 148, 144, 151, 120, 141, 128, 164
 | 147, 145, 152, 120, 140, 129, 164
 | 146, 140, 162, 120, 142, 128, 159
 | 146, 142, 160, 118, 141, 128, 162
 | 147, 143, 153, 121, 142, 128, 163
 | 146, 144, 152, 120, 141, 128, 164
 | 147, 140, 161, 120, 142, 129, 157
 | 146, 145, 153, 120, 140, 129, 165
 | 147, 144, 152, 120, 140, 128, 165
 | 148, 142, 154, 119, 142, 126, 165
 | 148, 144, 152, 120, 141, 128, 164
 | 147, 142, 153, 120, 142, 127, 165
 | 148, 144, 152, 120, 141, 128, 164
 | 147, 145, 151, 120, 140, 129, 164
 | 147, 143, 153, 120, 141, 127, 165
 | 146, 145, 152, 120, 139, 129, 165
 | 148, 144, 152, 120, 140, 129, 164
 | 147, 144, 152, 120, 141, 128, 164
 | 148, 145, 151, 120, 140, 129, 163
 | 146, 145, 152, 119, 139, 129, 165
 | 147, 143, 154, 119, 141, 127, 166
 | 145, 141, 158, 120, 143, 127, 163
 | 146, 145, 152, 119, 139, 128, 166
 | 146, 142, 166, 117, 138, 129, 158
 | 146, 142, 166, 117, 138, 129, 158
 | 147, 145, 152, 119, 139, 129, 165
 | 148, 145, 152, 120, 139, 129, 164
 | 147, 143, 154, 119, 141, 127, 166
 | 145, 144, 163, 117, 137, 131, 159
 | 146, 145, 153, 119, 139, 129, 164
 | 144, 143, 157, 118, 140, 128, 166
 | 146, 144, 155, 119, 140, 129, 164
 | 146, 144, 163, 117, 137, 131, 158
 | 144, 148, 159, 117, 136, 134, 159
 | 145, 143, 157, 119, 141, 128, 164
 | 145, 145, 162, 117, 136, 133, 157
 | 144, 145, 157, 118, 138, 129, 166
 | 148, 145, 157, 118, 138, 130, 161
 | 147, 146, 156, 118, 137, 130, 161
 | 148, 146, 156, 118, 137, 130, 161
 | 149, 149, 152, 119, 135, 133, 159
 | 148, 143, 152, 121, 142, 128, 163
 | 148, 144, 152, 120, 141, 128, 164
 | 149, 140, 153, 121, 144, 125, 163
 | 148, 141, 154, 120, 143, 126, 164
 | 147, 142, 157, 117, 140, 127, 166
 | 145, 141, 157, 120, 145, 128, 160
 | 144, 144, 161, 118, 138, 131, 161
 | 146, 142, 163, 118, 139, 131, 158
 | 145, 145, 161, 117, 137, 131, 161
 | 146, 144, 161, 117, 138, 130, 162
 | 144, 148, 158, 117, 136, 134, 160
 | 144, 148, 158, 117, 136, 134, 160
 | 145, 148, 158, 117, 136, 133, 161
 | 145, 148, 159, 117, 135, 135, 158
 | 148, 136, 152, 126, 151, 125, 159
 | 145, 140, 156, 122, 145, 126, 163
 | 149, 140, 150, 122, 144, 125, 166
 | 149, 140, 151, 122, 145, 125, 164
 | 149, 141, 150, 122, 144, 126, 165
 | 149, 141, 150, 122, 144, 126, 165
 | 147, 140, 153, 122, 146, 125, 163
 | 148, 142, 151, 122, 144, 126, 164
 | 151, 139, 153, 120, 145, 124, 164
 | 148, 142, 150, 123, 144, 127, 163
 | 147, 142, 150, 124, 145, 127, 161
 | 151, 140, 150, 122, 144, 125, 165
 | 149, 141, 153, 122, 144, 126, 163
 | 148, 141, 151, 122, 144, 126, 164
 | 149, 136, 149, 129, 153, 123, 158
 | 148, 141, 153, 121, 144, 126, 163
 | 151, 141, 151, 121, 143, 126, 164
 | 148, 141, 152, 122, 145, 126, 163
 | 148, 142, 151, 121, 143, 127, 164
 | 148, 143, 150, 123, 143, 128, 162
 | 143, 145, 155, 120, 140, 130, 163
 | 149, 143, 151, 120, 142, 128, 163
 | 151, 144, 152, 119, 141, 128, 161
 | 150, 142, 152, 120, 142, 127, 163
 | 149, 144, 151, 121, 141, 128, 163
 | 146, 142, 155, 120, 142, 127, 164
 | 143, 145, 156, 119, 139, 130, 164
 | 147, 148, 151, 120, 137, 132, 161
 | 149, 145, 152, 121, 139, 129, 161
 | 148, 145, 154, 119, 139, 129, 162
 | 149, 146, 153, 119, 138, 130, 161
 | 144, 150, 155, 119, 135, 133, 159
 | 149, 150, 152, 119, 134, 135, 157
 | 147, 148, 153, 122, 133, 142, 150
 | 149, 148, 157, 118, 133, 138, 154
 | 142, 156, 146, 124, 123, 166, 139
 | 142, 149, 146, 133, 134, 152, 141
 | 144, 152, 144, 131, 131, 154, 141
 | 155, 157, 149, 120, 126, 146, 142
 | 152, 152, 148, 124, 130, 146, 144
 | 143, 154, 145, 127, 128, 158, 141
 | 143, 154, 145, 128, 128, 158, 141
 | 145, 157, 145, 125, 127, 157, 141
 | 147, 140, 154, 121, 144, 126, 165
 | 145, 142, 155, 121, 143, 127, 164
 | 146, 140, 155, 120, 144, 125, 166
 | 145, 141, 154, 121, 144, 126, 165
 | 146, 139, 152, 124, 148, 125, 162
 | 147, 141, 152, 122, 145, 126, 163
 | 148, 140, 153, 122, 146, 125, 163
 | 146, 142, 154, 120, 143, 127, 165
 | 148, 142, 151, 122, 144, 126, 164
 | 149, 141, 152, 121, 144, 126, 164
 | 148, 140, 152, 123, 146, 125, 162
 | 147, 143, 154, 120, 142, 127, 165
 | 146, 144, 153, 121, 142, 128, 163
 | 146, 144, 153, 120, 141, 128, 164
 | 151, 145, 166, 114, 132, 132, 156
 | 151, 146, 162, 116, 134, 132, 156
 | 156, 149, 158, 117, 129, 139, 148
 | 154, 155, 154, 117, 126, 144, 146
 | 147, 159, 146, 124, 126, 154, 140
 | 146, 140, 154, 121, 145, 125, 165
 | 144, 139, 155, 123, 146, 126, 163
 | 148, 141, 153, 121, 144, 126, 163
 | 145, 142, 155, 121, 143, 127, 164
 | 148, 143, 153, 120, 142, 127, 164
 | 148, 142, 151, 122, 143, 127, 164
 | 150, 142, 149, 122, 143, 127, 164
 | 149, 142, 150, 122, 143, 126, 164
 | 148, 141, 152, 122, 145, 126, 163
 | 148, 142, 154, 120, 142, 127, 164
 | 148, 143, 151, 122, 143, 127, 163
 | 147, 142, 152, 122, 144, 127, 162
 | 147, 145, 154, 119, 139, 129, 163
 | 145, 144, 154, 121, 141, 129, 163
 | 148, 142, 156, 118, 141, 127, 165
 | 148, 142, 153, 120, 143, 126, 164
 | 147, 142, 153, 120, 142, 127, 164
 | 145, 146, 151, 121, 140, 130, 163
 | 146, 142, 153, 121, 143, 127, 162
 | 146, 142, 163, 118, 140, 130, 158
 | 148, 143, 157, 117, 139, 129, 163
 | 148, 141, 154, 120, 143, 126, 164
 | 145, 145, 154, 120, 140, 129, 164
 | 148, 144, 153, 119, 140, 128, 164
 | 147, 143, 155, 119, 141, 127, 165
 | 146, 143, 165, 117, 138, 130, 159
 | 145, 142, 156, 119, 142, 127, 166
 | 145, 142, 156, 120, 142, 127, 165
 | 145, 144, 157, 119, 140, 128, 164
 | 147, 143, 158, 117, 140, 128, 163
 | 145, 141, 161, 120, 141, 129, 159
 | 141, 135, 144, 142, 158, 129, 147
 | 148, 153, 159, 116, 129, 139, 153
 | 142, 166, 151, 117, 124, 149, 147
 | 142, 162, 150, 121, 126, 151, 145
 | 149, 156, 150, 122, 126, 152, 143
 | 153, 150, 152, 125, 129, 144, 144
 | 152, 157, 151, 120, 125, 149, 142
 | 150, 164, 148, 119, 123, 153, 140
 | 139, 136, 141, 166, 142, 133, 139
 | 139, 136, 141, 165, 142, 134, 139
 | 149, 166, 147, 119, 122, 154, 140
 | 147, 148, 166, 118, 130, 136, 151
 | 151, 156, 151, 119, 125, 150, 144
 | 153, 145, 161, 115, 135, 131, 156
 | 152, 147, 160, 114, 133, 133, 157
 | 155, 142, 159, 117, 138, 130, 155
 | 154, 144, 159, 116, 136, 131, 155
 | 166, 139, 147, 124, 141, 128, 152
 | 166, 146, 153, 119, 132, 135, 145
 | 157, 154, 151, 120, 127, 144, 143
 | 155, 154, 149, 122, 129, 144, 143
 | 153, 140, 145, 135, 143, 134, 146
 | 148, 135, 143, 136, 158, 125, 152
 | 144, 133, 144, 136, 166, 124, 150
 | 146, 143, 156, 119, 141, 128, 164
 | 150, 141, 154, 127, 140, 134, 151
 | 150, 139, 150, 130, 147, 131, 149
 | 154, 143, 154, 121, 141, 131, 153
 | 161, 143, 149, 126, 138, 134, 144
 | 166, 143, 150, 124, 135, 135, 143
 | 157, 142, 149, 128, 141, 135, 145
 | 158, 142, 149, 128, 140, 135, 145
 | 165, 143, 151, 124, 135, 136, 143
 | 162, 145, 152, 123, 134, 138, 143
 | 162, 143, 150, 125, 137, 135, 144
 | 163, 143, 151, 125, 136, 135, 143
 | 161, 143, 149, 127, 138, 134, 144
 | 159, 142, 148, 128, 140, 134, 145
 | 147, 146, 147, 136, 135, 141, 145
 | 161, 142, 148, 128, 139, 134, 145
 | 157, 141, 148, 129, 142, 134, 145
 | 161, 143, 149, 127, 138, 134, 144
 | 157, 143, 149, 128, 141, 135, 145
 | 158, 143, 149, 127, 140, 135, 145
 | 149, 137, 145, 139, 149, 132, 145
 | 162, 145, 151, 124, 134, 137, 143
 | 160, 144, 151, 126, 136, 136, 143
 | 157, 142, 148, 129, 142, 134, 145
 | 158, 142, 149, 128, 140, 135, 145
 | 158, 142, 149, 127, 140, 135, 145
 | 158, 142, 149, 127, 140, 135, 145 |];
 P=[7, 7, 7, 7, 7, 7, 7, 7, 7, 7, 7, 7, 7, 7, 7, 7, 7, 3, 7, 7, 7, 3, 7, 7, 7, 7, 7, 7, 7, 7, 7, 7, 7, 7, 7, 7, 7, 7, 3, 3, 7, 7, 7, 3, 7, 7, 7, 3, 3, 7, 3, 7, 7, 7, 7, 7, 7, 7, 7, 7, 7, 7, 3, 3, 3, 3, 3, 3, 3, 3, 7, 7, 7, 7, 7, 7, 7, 7, 7, 7, 7, 7, 7, 7, 7, 7, 7, 7, 7, 7, 7, 7, 7, 7, 7, 7, 7, 7, 7, 7, 7, 7, 7, 3, 3, 6, 6, 6, 2, 2, 6, 6, 6, 7, 7, 7, 7, 7, 7, 7, 7, 7, 7, 7, 7, 7, 7, 3, 3, 3, 2, 6, 7, 7, 7, 7, 7, 7, 7, 7, 7, 7, 7, 7, 7, 7, 7, 7, 7, 7, 7, 3, 7, 7, 7, 7, 7, 3, 7, 7, 7, 7, 3, 5, 3, 2, 2, 2, 2, 2, 2, 4, 4, 2, 3, 2, 3, 3, 3, 3, 1, 1, 2, 2, 1, 5, 5, 7, 3, 3, 1, 1, 1, 1, 1, 1, 1, 1, 1, 1, 1, 2, 1, 1, 1, 1, 1, 1, 1, 1, 1, 1, 1, 1 ];